(declare-fun bvlambda_1_ () (_ BitVec 1))
(declare-fun bvlambda_3_ () (_ BitVec 7))
(declare-fun a47 () (Array (_ BitVec 4) (_ BitVec 10)))
(declare-fun a52 () (Array (_ BitVec 1) (_ BitVec 10)))
(assert
(let (($e1 (_ bv0 1)))
(let (($e11 (_ bv0 5)))
(let (($e24 (_ bv0 4)))
(let (($e97                $e11              ))
(let (($e99 (concat $e11 bvlambda_3_)))
(let (($e103 (select a47        $e24)))
(let (($e112 (store a52        bvlambda_1_ $e103)))
(let (($e113 (select $e112 true       )))
(let (($e127      (bvult        $e113  $e103)         ))
(let (($e140 (   extract      $e113)))
(let (($e141 (store a52 $e1 $e113)))
(let (($e142 (select $e141 $e140)))
(let (($e143 (concat $e97 $e142)))
(let (($e165 ((_ extract 10 0) $e99 )))
(let (($e166 ((_ extract 10 0) $e143)))
(let (($e167      (=     $e166 $e165)         ))
                  (= $e167        $e127 )
                                                                                                                                                                                                                                                                                                     )))                     ))))            )             ))        )   ) )                                                            )            )         ))
